
Gurobi 6.5.2 (linux64) logging started Sat 31 Mar 2018 05:54:05 PM PDT


Gurobi 6.5.2 (linux64) logging started Tue 03 Apr 2018 09:11:50 PM PDT


Gurobi 6.5.2 (linux64) logging started Wed 04 Apr 2018 04:14:28 PM PDT


Gurobi 6.5.2 (linux64) logging started Wed 04 Apr 2018 04:15:50 PM PDT


Gurobi 6.5.2 (linux64) logging started Wed 04 Apr 2018 04:24:34 PM PDT


Gurobi 6.5.2 (linux64) logging started Sat 14 Apr 2018 03:41:19 AM PDT


Gurobi 6.5.2 (linux64) logging started Sat 14 Apr 2018 03:52:16 AM PDT


Gurobi 6.5.2 (linux64) logging started Sat 14 Apr 2018 03:53:23 AM PDT


Gurobi 6.5.2 (linux64) logging started Sat 14 Apr 2018 03:54:44 AM PDT


Gurobi 6.5.2 (linux64) logging started Sat 14 Apr 2018 02:30:10 PM PDT


Gurobi 6.5.2 (linux64) logging started Sat 14 Apr 2018 02:31:50 PM PDT


Gurobi 6.5.2 (linux64) logging started Sat 14 Apr 2018 02:34:18 PM PDT


Gurobi 6.5.2 (linux64) logging started Sat 14 Apr 2018 02:35:03 PM PDT


Gurobi 6.5.2 (linux64) logging started Sat 14 Apr 2018 02:44:53 PM PDT


Gurobi 6.5.2 (linux64) logging started Sat 14 Apr 2018 02:47:33 PM PDT


Gurobi 6.5.2 (linux64) logging started Sat 14 Apr 2018 02:49:53 PM PDT


Gurobi 6.5.2 (linux64) logging started Sat 14 Apr 2018 02:53:59 PM PDT


Gurobi 6.5.2 (linux64) logging started Sat 14 Apr 2018 02:54:24 PM PDT


Gurobi 6.5.2 (linux64) logging started Sat 14 Apr 2018 02:57:04 PM PDT


Gurobi 6.5.2 (linux64) logging started Sat 14 Apr 2018 02:58:00 PM PDT


Gurobi 6.5.2 (linux64) logging started Sat 14 Apr 2018 02:59:33 PM PDT


Gurobi 6.5.2 (linux64) logging started Sat 14 Apr 2018 03:00:38 PM PDT


Gurobi 6.5.2 (linux64) logging started Sat 14 Apr 2018 03:02:36 PM PDT


Gurobi 6.5.2 (linux64) logging started Sat 14 Apr 2018 03:06:39 PM PDT


Gurobi 6.5.2 (linux64) logging started Sat 14 Apr 2018 03:12:07 PM PDT


Gurobi 6.5.2 (linux64) logging started Sat 14 Apr 2018 03:15:39 PM PDT


Gurobi 6.5.2 (linux64) logging started Sat 14 Apr 2018 03:32:19 PM PDT


Gurobi 6.5.2 (linux64) logging started Sat 14 Apr 2018 03:33:40 PM PDT


Gurobi 6.5.2 (linux64) logging started Sat 14 Apr 2018 03:34:20 PM PDT


Gurobi 6.5.2 (linux64) logging started Sat 14 Apr 2018 03:37:07 PM PDT


Gurobi 6.5.2 (linux64) logging started Sat 14 Apr 2018 03:39:47 PM PDT


Gurobi 6.5.2 (linux64) logging started Sat 14 Apr 2018 03:46:19 PM PDT


Gurobi 6.5.2 (linux64) logging started Sat 14 Apr 2018 03:49:16 PM PDT


Gurobi 6.5.2 (linux64) logging started Sat 14 Apr 2018 03:51:07 PM PDT


Gurobi 6.5.2 (linux64) logging started Sat 14 Apr 2018 03:52:58 PM PDT


Gurobi 6.5.2 (linux64) logging started Sat 14 Apr 2018 03:54:29 PM PDT


Gurobi 6.5.2 (linux64) logging started Sat 14 Apr 2018 04:06:46 PM PDT


Gurobi 6.5.2 (linux64) logging started Sat 14 Apr 2018 04:12:27 PM PDT


Gurobi 6.5.2 (linux64) logging started Sat 14 Apr 2018 04:14:23 PM PDT


Gurobi 6.5.2 (linux64) logging started Sat 14 Apr 2018 04:15:59 PM PDT


Gurobi 6.5.2 (linux64) logging started Sat 14 Apr 2018 04:18:07 PM PDT


Gurobi 6.5.2 (linux64) logging started Sat 14 Apr 2018 04:20:29 PM PDT


Gurobi 6.5.2 (linux64) logging started Sat 14 Apr 2018 04:24:37 PM PDT


Gurobi 6.5.2 (linux64) logging started Sat 14 Apr 2018 04:38:22 PM PDT


Gurobi 6.5.2 (linux64) logging started Sat 14 Apr 2018 04:48:54 PM PDT


Gurobi 6.5.2 (linux64) logging started Sat 14 Apr 2018 04:53:39 PM PDT


Gurobi 6.5.2 (linux64) logging started Sat 14 Apr 2018 04:59:40 PM PDT


Gurobi 6.5.2 (linux64) logging started Sat 14 Apr 2018 05:06:15 PM PDT


Gurobi 6.5.2 (linux64) logging started Sat 14 Apr 2018 05:06:49 PM PDT


Gurobi 6.5.2 (linux64) logging started Sat 14 Apr 2018 05:11:50 PM PDT


Gurobi 6.5.2 (linux64) logging started Sat 14 Apr 2018 05:13:50 PM PDT


Gurobi 6.5.2 (linux64) logging started Sat 14 Apr 2018 05:21:36 PM PDT


Gurobi 6.5.2 (linux64) logging started Sat 14 Apr 2018 05:25:20 PM PDT


Gurobi 6.5.2 (linux64) logging started Sat 14 Apr 2018 05:30:14 PM PDT


Gurobi 6.5.2 (linux64) logging started Sat 14 Apr 2018 05:42:28 PM PDT


Gurobi 6.5.2 (linux64) logging started Sat 14 Apr 2018 05:55:51 PM PDT


Gurobi 6.5.2 (linux64) logging started Sat 14 Apr 2018 06:04:05 PM PDT


Gurobi 6.5.2 (linux64) logging started Sat 14 Apr 2018 06:06:40 PM PDT


Gurobi 6.5.2 (linux64) logging started Sat 14 Apr 2018 09:53:39 PM PDT


Gurobi 6.5.2 (linux64) logging started Sat 14 Apr 2018 10:07:21 PM PDT


Gurobi 6.5.2 (linux64) logging started Sat 14 Apr 2018 10:14:18 PM PDT


Gurobi 6.5.2 (linux64) logging started Sat 14 Apr 2018 10:19:22 PM PDT


Gurobi 6.5.2 (linux64) logging started Sat 14 Apr 2018 10:26:06 PM PDT


Gurobi 6.5.2 (linux64) logging started Sat 14 Apr 2018 10:28:04 PM PDT


Gurobi 6.5.2 (linux64) logging started Sat 14 Apr 2018 10:36:58 PM PDT


Gurobi 6.5.2 (linux64) logging started Sat 14 Apr 2018 10:43:59 PM PDT


Gurobi 6.5.2 (linux64) logging started Sun 15 Apr 2018 01:25:30 AM PDT


Gurobi 6.5.2 (linux64) logging started Sun 15 Apr 2018 01:32:25 AM PDT


Gurobi 6.5.2 (linux64) logging started Sun 15 Apr 2018 01:38:36 AM PDT


Gurobi 6.5.2 (linux64) logging started Sun 15 Apr 2018 01:53:02 AM PDT


Gurobi 6.5.2 (linux64) logging started Sun 15 Apr 2018 01:59:39 AM PDT


Gurobi 6.5.2 (linux64) logging started Sun 15 Apr 2018 02:07:01 AM PDT


Gurobi 6.5.2 (linux64) logging started Sun 15 Apr 2018 02:40:07 AM PDT


Gurobi 6.5.2 (linux64) logging started Sun 15 Apr 2018 02:45:39 AM PDT


Gurobi 6.5.2 (linux64) logging started Sun 15 Apr 2018 02:51:03 AM PDT


Gurobi 6.5.2 (linux64) logging started Sun 15 Apr 2018 02:57:34 AM PDT


Gurobi 6.5.2 (linux64) logging started Sun 15 Apr 2018 03:04:35 AM PDT


Gurobi 6.5.2 (linux64) logging started Sun 15 Apr 2018 03:10:05 AM PDT


Gurobi 6.5.2 (linux64) logging started Sun 15 Apr 2018 03:15:20 AM PDT


Gurobi 6.5.2 (linux64) logging started Sun 15 Apr 2018 03:24:04 AM PDT


Gurobi 6.5.2 (linux64) logging started Sun 15 Apr 2018 03:32:54 AM PDT


Gurobi 6.5.2 (linux64) logging started Sun 15 Apr 2018 03:37:27 AM PDT


Gurobi 6.5.2 (linux64) logging started Sun 15 Apr 2018 03:42:41 AM PDT


Gurobi 6.5.2 (linux64) logging started Sun 15 Apr 2018 03:48:03 AM PDT


Gurobi 6.5.2 (linux64) logging started Sun 15 Apr 2018 03:52:59 AM PDT


Gurobi 6.5.2 (linux64) logging started Sun 15 Apr 2018 03:59:08 AM PDT


Gurobi 6.5.2 (linux64) logging started Sun 15 Apr 2018 04:04:40 AM PDT


Gurobi 6.5.2 (linux64) logging started Sun 15 Apr 2018 04:12:43 AM PDT


Gurobi 6.5.2 (linux64) logging started Sun 15 Apr 2018 02:29:07 PM PDT


Gurobi 6.5.2 (linux64) logging started Sun 15 Apr 2018 02:40:26 PM PDT


Gurobi 6.5.2 (linux64) logging started Sun 15 Apr 2018 02:53:14 PM PDT


Gurobi 6.5.2 (linux64) logging started Sun 15 Apr 2018 03:01:17 PM PDT


Gurobi 6.5.2 (linux64) logging started Sun 15 Apr 2018 03:06:11 PM PDT


Gurobi 6.5.2 (linux64) logging started Sun 15 Apr 2018 03:23:27 PM PDT


Gurobi 6.5.2 (linux64) logging started Sun 15 Apr 2018 03:42:56 PM PDT


Gurobi 6.5.2 (linux64) logging started Sun 15 Apr 2018 04:03:35 PM PDT


Gurobi 6.5.2 (linux64) logging started Sun 15 Apr 2018 04:20:09 PM PDT


Gurobi 6.5.2 (linux64) logging started Sun 15 Apr 2018 04:33:16 PM PDT


Gurobi 6.5.2 (linux64) logging started Sun 15 Apr 2018 04:40:22 PM PDT


Gurobi 6.5.2 (linux64) logging started Sun 15 Apr 2018 04:46:54 PM PDT


Gurobi 6.5.2 (linux64) logging started Sun 15 Apr 2018 04:53:34 PM PDT


Gurobi 6.5.2 (linux64) logging started Sun 15 Apr 2018 04:59:31 PM PDT


Gurobi 6.5.2 (linux64) logging started Sun 15 Apr 2018 05:10:42 PM PDT


Gurobi 6.5.2 (linux64) logging started Sun 15 Apr 2018 05:13:39 PM PDT


Gurobi 6.5.2 (linux64) logging started Sun 15 Apr 2018 05:19:03 PM PDT


Gurobi 6.5.2 (linux64) logging started Sun 15 Apr 2018 05:22:37 PM PDT


Gurobi 6.5.2 (linux64) logging started Sun 15 Apr 2018 05:24:46 PM PDT


Gurobi 6.5.2 (linux64) logging started Sun 15 Apr 2018 05:28:25 PM PDT


Gurobi 6.5.2 (linux64) logging started Sun 15 Apr 2018 05:43:49 PM PDT


Gurobi 6.5.2 (linux64) logging started Sun 15 Apr 2018 05:45:32 PM PDT


Gurobi 6.5.2 (linux64) logging started Sun 15 Apr 2018 05:46:49 PM PDT


Gurobi 6.5.2 (linux64) logging started Sun 15 Apr 2018 05:48:51 PM PDT


Gurobi 6.5.2 (linux64) logging started Sun 15 Apr 2018 05:51:16 PM PDT


Gurobi 6.5.2 (linux64) logging started Sun 15 Apr 2018 05:54:30 PM PDT


Gurobi 6.5.2 (linux64) logging started Sun 15 Apr 2018 05:57:48 PM PDT


Gurobi 6.5.2 (linux64) logging started Sun 15 Apr 2018 06:00:20 PM PDT


Gurobi 6.5.2 (linux64) logging started Sun 15 Apr 2018 06:01:59 PM PDT


Gurobi 6.5.2 (linux64) logging started Sun 15 Apr 2018 06:07:17 PM PDT


Gurobi 6.5.2 (linux64) logging started Sun 15 Apr 2018 06:08:42 PM PDT


Gurobi 6.5.2 (linux64) logging started Sun 15 Apr 2018 06:10:49 PM PDT


Gurobi 6.5.2 (linux64) logging started Sun 15 Apr 2018 06:13:33 PM PDT


Gurobi 6.5.2 (linux64) logging started Sun 15 Apr 2018 06:14:32 PM PDT


Gurobi 6.5.2 (linux64) logging started Sun 15 Apr 2018 06:18:18 PM PDT


Gurobi 6.5.2 (linux64) logging started Sun 15 Apr 2018 06:20:15 PM PDT


Gurobi 6.5.2 (linux64) logging started Sun 15 Apr 2018 06:25:19 PM PDT


Gurobi 6.5.2 (linux64) logging started Sun 15 Apr 2018 06:29:18 PM PDT


Gurobi 6.5.2 (linux64) logging started Sun 15 Apr 2018 06:30:57 PM PDT


Gurobi 6.5.2 (linux64) logging started Sun 15 Apr 2018 06:32:48 PM PDT


Gurobi 6.5.2 (linux64) logging started Sun 15 Apr 2018 06:36:27 PM PDT


Gurobi 6.5.2 (linux64) logging started Sun 15 Apr 2018 06:38:04 PM PDT


Gurobi 6.5.2 (linux64) logging started Sun 15 Apr 2018 06:39:21 PM PDT


Gurobi 6.5.2 (linux64) logging started Sun 15 Apr 2018 06:44:06 PM PDT


Gurobi 6.5.2 (linux64) logging started Sun 15 Apr 2018 06:46:57 PM PDT


Gurobi 6.5.2 (linux64) logging started Sun 15 Apr 2018 06:49:06 PM PDT


Gurobi 6.5.2 (linux64) logging started Sun 15 Apr 2018 06:50:05 PM PDT


Gurobi 6.5.2 (linux64) logging started Sun 15 Apr 2018 06:52:09 PM PDT


Gurobi 6.5.2 (linux64) logging started Sun 15 Apr 2018 06:56:30 PM PDT


Gurobi 6.5.2 (linux64) logging started Sun 15 Apr 2018 06:57:19 PM PDT


Gurobi 6.5.2 (linux64) logging started Sun 15 Apr 2018 06:59:31 PM PDT


Gurobi 6.5.2 (linux64) logging started Sun 15 Apr 2018 07:02:17 PM PDT


Gurobi 6.5.2 (linux64) logging started Sun 15 Apr 2018 09:50:25 PM PDT


Gurobi 6.5.2 (linux64) logging started Sun 15 Apr 2018 09:53:54 PM PDT


Gurobi 6.5.2 (linux64) logging started Sun 15 Apr 2018 09:55:53 PM PDT


Gurobi 6.5.2 (linux64) logging started Sun 15 Apr 2018 10:05:45 PM PDT


Gurobi 6.5.2 (linux64) logging started Sun 15 Apr 2018 10:29:14 PM PDT


Gurobi 6.5.2 (linux64) logging started Sun 15 Apr 2018 10:33:05 PM PDT


Gurobi 6.5.2 (linux64) logging started Sun 15 Apr 2018 10:37:08 PM PDT


Gurobi 6.5.2 (linux64) logging started Sun 15 Apr 2018 10:39:54 PM PDT


Gurobi 6.5.2 (linux64) logging started Sun 15 Apr 2018 10:45:26 PM PDT


Gurobi 6.5.2 (linux64) logging started Sun 15 Apr 2018 10:48:55 PM PDT


Gurobi 6.5.2 (linux64) logging started Sun 15 Apr 2018 10:51:49 PM PDT


Gurobi 6.5.2 (linux64) logging started Mon 16 Apr 2018 02:52:29 PM PDT


Gurobi 6.5.2 (linux64) logging started Mon 16 Apr 2018 03:17:04 PM PDT


Gurobi 6.5.2 (linux64) logging started Mon 16 Apr 2018 04:59:18 PM PDT


Gurobi 6.5.2 (linux64) logging started Mon 16 Apr 2018 06:19:34 PM PDT


Gurobi 6.5.2 (linux64) logging started Mon 16 Apr 2018 07:54:19 PM PDT


Gurobi 6.5.2 (linux64) logging started Mon 16 Apr 2018 08:06:10 PM PDT


Gurobi 6.5.2 (linux64) logging started Mon 16 Apr 2018 08:30:47 PM PDT


Gurobi 6.5.2 (linux64) logging started Mon 16 Apr 2018 08:49:21 PM PDT


Gurobi 6.5.2 (linux64) logging started Mon 16 Apr 2018 09:03:56 PM PDT


Gurobi 6.5.2 (linux64) logging started Mon 16 Apr 2018 09:27:22 PM PDT


Gurobi 6.5.2 (linux64) logging started Mon 16 Apr 2018 09:39:37 PM PDT


Gurobi 6.5.2 (linux64) logging started Mon 16 Apr 2018 09:50:44 PM PDT


Gurobi 6.5.2 (linux64) logging started Mon 16 Apr 2018 09:58:54 PM PDT


Gurobi 6.5.2 (linux64) logging started Mon 16 Apr 2018 10:23:05 PM PDT


Gurobi 6.5.2 (linux64) logging started Mon 16 Apr 2018 10:31:34 PM PDT


Gurobi 6.5.2 (linux64) logging started Mon 16 Apr 2018 10:37:51 PM PDT


Gurobi 6.5.2 (linux64) logging started Mon 16 Apr 2018 10:49:02 PM PDT


Gurobi 6.5.2 (linux64) logging started Mon 16 Apr 2018 10:53:48 PM PDT


Gurobi 6.5.2 (linux64) logging started Mon 16 Apr 2018 11:03:11 PM PDT


Gurobi 6.5.2 (linux64) logging started Tue 17 Apr 2018 01:51:47 PM PDT


Gurobi 6.5.2 (linux64) logging started Tue 17 Apr 2018 01:55:17 PM PDT


Gurobi 6.5.2 (linux64) logging started Tue 17 Apr 2018 01:58:38 PM PDT


Gurobi 6.5.2 (linux64) logging started Tue 17 Apr 2018 02:23:30 PM PDT


Gurobi 6.5.2 (linux64) logging started Tue 17 Apr 2018 02:30:06 PM PDT


Gurobi 6.5.2 (linux64) logging started Tue 17 Apr 2018 02:43:29 PM PDT


Gurobi 6.5.2 (linux64) logging started Tue 17 Apr 2018 02:46:34 PM PDT


Gurobi 6.5.2 (linux64) logging started Tue 17 Apr 2018 03:24:11 PM PDT


Gurobi 6.5.2 (linux64) logging started Tue 17 Apr 2018 03:50:01 PM PDT


Gurobi 6.5.2 (linux64) logging started Tue 17 Apr 2018 04:13:40 PM PDT


Gurobi 6.5.2 (linux64) logging started Tue 17 Apr 2018 08:52:04 PM PDT


Gurobi 6.5.2 (linux64) logging started Tue 17 Apr 2018 09:08:50 PM PDT


Gurobi 6.5.2 (linux64) logging started Tue 17 Apr 2018 10:47:47 PM PDT


Gurobi 6.5.2 (linux64) logging started Wed 18 Apr 2018 02:20:34 AM PDT


Gurobi 6.5.2 (linux64) logging started Wed 18 Apr 2018 02:41:35 AM PDT


Gurobi 6.5.2 (linux64) logging started Wed 18 Apr 2018 03:27:30 AM PDT


Gurobi 6.5.2 (linux64) logging started Wed 18 Apr 2018 04:33:58 AM PDT


Gurobi 6.5.2 (linux64) logging started Wed 18 Apr 2018 04:40:52 AM PDT


Gurobi 6.5.2 (linux64) logging started Wed 18 Apr 2018 02:18:12 PM PDT


Gurobi 6.5.2 (linux64) logging started Wed 18 Apr 2018 03:31:58 PM PDT


Gurobi 6.5.2 (linux64) logging started Wed 18 Apr 2018 04:06:45 PM PDT


Gurobi 6.5.2 (linux64) logging started Wed 18 Apr 2018 04:56:49 PM PDT


Gurobi 6.5.2 (linux64) logging started Wed 18 Apr 2018 05:13:19 PM PDT


Gurobi 6.5.2 (linux64) logging started Wed 18 Apr 2018 05:49:24 PM PDT


Gurobi 6.5.2 (linux64) logging started Wed 18 Apr 2018 07:51:40 PM PDT


Gurobi 6.5.2 (linux64) logging started Wed 18 Apr 2018 09:12:14 PM PDT


Gurobi 6.5.2 (linux64) logging started Thu 19 Apr 2018 02:11:58 PM PDT


Gurobi 6.5.2 (linux64) logging started Thu 19 Apr 2018 03:07:18 PM PDT


Gurobi 6.5.2 (linux64) logging started Thu 19 Apr 2018 03:37:44 PM PDT


Gurobi 6.5.2 (linux64) logging started Thu 19 Apr 2018 03:59:53 PM PDT


Gurobi 6.5.2 (linux64) logging started Fri 20 Apr 2018 12:40:49 AM PDT


Gurobi 6.5.2 (linux64) logging started Fri 20 Apr 2018 12:52:00 AM PDT


Gurobi 6.5.2 (linux64) logging started Fri 20 Apr 2018 01:18:25 AM PDT


Gurobi 6.5.2 (linux64) logging started Fri 20 Apr 2018 01:27:13 AM PDT


Gurobi 6.5.2 (linux64) logging started Fri 20 Apr 2018 01:29:03 AM PDT


Gurobi 6.5.2 (linux64) logging started Fri 20 Apr 2018 01:39:26 AM PDT


Gurobi 6.5.2 (linux64) logging started Fri 20 Apr 2018 01:47:00 AM PDT


Gurobi 6.5.2 (linux64) logging started Fri 20 Apr 2018 01:50:44 AM PDT


Gurobi 6.5.2 (linux64) logging started Fri 20 Apr 2018 01:53:30 AM PDT


Gurobi 6.5.2 (linux64) logging started Fri 20 Apr 2018 01:59:31 AM PDT


Gurobi 6.5.2 (linux64) logging started Fri 20 Apr 2018 02:00:32 AM PDT


Gurobi 6.5.2 (linux64) logging started Fri 20 Apr 2018 02:03:21 AM PDT


Gurobi 6.5.2 (linux64) logging started Fri 20 Apr 2018 02:07:55 AM PDT


Gurobi 6.5.2 (linux64) logging started Fri 20 Apr 2018 02:13:45 AM PDT


Gurobi 6.5.2 (linux64) logging started Fri 20 Apr 2018 02:24:45 AM PDT


Gurobi 6.5.2 (linux64) logging started Fri 20 Apr 2018 02:25:31 AM PDT


Gurobi 6.5.2 (linux64) logging started Fri 20 Apr 2018 02:30:31 AM PDT


Gurobi 6.5.2 (linux64) logging started Fri 20 Apr 2018 02:33:58 AM PDT


Gurobi 6.5.2 (linux64) logging started Fri 20 Apr 2018 02:34:40 AM PDT


Gurobi 6.5.2 (linux64) logging started Fri 20 Apr 2018 02:40:28 AM PDT


Gurobi 6.5.2 (linux64) logging started Fri 20 Apr 2018 02:59:46 AM PDT


Gurobi 6.5.2 (linux64) logging started Fri 20 Apr 2018 03:05:25 AM PDT


Gurobi 6.5.2 (linux64) logging started Fri 20 Apr 2018 03:20:26 AM PDT


Gurobi 6.5.2 (linux64) logging started Fri 20 Apr 2018 03:28:05 AM PDT


Gurobi 6.5.2 (linux64) logging started Fri 20 Apr 2018 03:34:10 AM PDT


Gurobi 6.5.2 (linux64) logging started Fri 20 Apr 2018 03:38:58 AM PDT


Gurobi 6.5.2 (linux64) logging started Fri 20 Apr 2018 03:44:23 AM PDT


Gurobi 6.5.2 (linux64) logging started Fri 20 Apr 2018 03:50:06 AM PDT


Gurobi 6.5.2 (linux64) logging started Fri 20 Apr 2018 03:54:31 AM PDT


Gurobi 6.5.2 (linux64) logging started Fri 20 Apr 2018 04:02:18 AM PDT


Gurobi 6.5.2 (linux64) logging started Fri 20 Apr 2018 04:02:53 AM PDT


Gurobi 6.5.2 (linux64) logging started Fri 20 Apr 2018 04:08:47 AM PDT


Gurobi 6.5.2 (linux64) logging started Fri 20 Apr 2018 04:13:22 AM PDT


Gurobi 6.5.2 (linux64) logging started Fri 20 Apr 2018 04:19:15 AM PDT


Gurobi 6.5.2 (linux64) logging started Fri 20 Apr 2018 12:43:08 PM PDT


Gurobi 6.5.2 (linux64) logging started Fri 20 Apr 2018 12:43:51 PM PDT


Gurobi 6.5.2 (linux64) logging started Fri 20 Apr 2018 12:44:26 PM PDT


Gurobi 6.5.2 (linux64) logging started Fri 20 Apr 2018 12:45:05 PM PDT


Gurobi 6.5.2 (linux64) logging started Fri 20 Apr 2018 12:45:40 PM PDT


Gurobi 6.5.2 (linux64) logging started Fri 20 Apr 2018 12:46:14 PM PDT


Gurobi 6.5.2 (linux64) logging started Thu 10 May 2018 02:14:07 PM PDT


Gurobi 6.5.2 (linux64) logging started Thu 10 May 2018 02:34:45 PM PDT


Gurobi 6.5.2 (linux64) logging started Thu 10 May 2018 02:38:36 PM PDT


Gurobi 6.5.2 (linux64) logging started Thu 10 May 2018 02:59:04 PM PDT


Gurobi 6.5.2 (linux64) logging started Thu 10 May 2018 03:08:11 PM PDT


Gurobi 6.5.2 (linux64) logging started Thu 10 May 2018 03:12:36 PM PDT


Gurobi 6.5.2 (linux64) logging started Thu 10 May 2018 03:19:12 PM PDT


Gurobi 6.5.2 (linux64) logging started Thu 10 May 2018 03:31:23 PM PDT


Gurobi 6.5.2 (linux64) logging started Thu 10 May 2018 03:33:40 PM PDT


Gurobi 6.5.2 (linux64) logging started Thu 10 May 2018 03:36:05 PM PDT


Gurobi 6.5.2 (linux64) logging started Thu 10 May 2018 03:38:01 PM PDT


Gurobi 6.5.2 (linux64) logging started Thu 10 May 2018 03:40:03 PM PDT


Gurobi 6.5.2 (linux64) logging started Thu 10 May 2018 03:42:23 PM PDT


Gurobi 6.5.2 (linux64) logging started Thu 10 May 2018 03:44:44 PM PDT


Gurobi 6.5.2 (linux64) logging started Thu 10 May 2018 03:47:57 PM PDT


Gurobi 6.5.2 (linux64) logging started Thu 10 May 2018 03:50:32 PM PDT


Gurobi 6.5.2 (linux64) logging started Thu 10 May 2018 03:52:50 PM PDT


Gurobi 6.5.2 (linux64) logging started Thu 10 May 2018 03:55:10 PM PDT


Gurobi 6.5.2 (linux64) logging started Thu 10 May 2018 03:58:21 PM PDT


Gurobi 6.5.2 (linux64) logging started Thu 10 May 2018 04:01:04 PM PDT


Gurobi 6.5.2 (linux64) logging started Thu 10 May 2018 04:04:06 PM PDT


Gurobi 6.5.2 (linux64) logging started Thu 10 May 2018 04:05:54 PM PDT


Gurobi 6.5.2 (linux64) logging started Thu 10 May 2018 04:08:49 PM PDT


Gurobi 6.5.2 (linux64) logging started Thu 10 May 2018 04:14:08 PM PDT


Gurobi 6.5.2 (linux64) logging started Thu 10 May 2018 04:19:14 PM PDT


Gurobi 6.5.2 (linux64) logging started Thu 10 May 2018 04:21:19 PM PDT


Gurobi 6.5.2 (linux64) logging started Thu 10 May 2018 04:24:31 PM PDT


Gurobi 6.5.2 (linux64) logging started Thu 10 May 2018 04:25:50 PM PDT


Gurobi 6.5.2 (linux64) logging started Thu 10 May 2018 04:28:53 PM PDT


Gurobi 6.5.2 (linux64) logging started Thu 10 May 2018 04:30:17 PM PDT


Gurobi 6.5.2 (linux64) logging started Thu 10 May 2018 04:36:27 PM PDT


Gurobi 6.5.2 (linux64) logging started Thu 10 May 2018 04:41:33 PM PDT


Gurobi 6.5.2 (linux64) logging started Thu 10 May 2018 04:46:01 PM PDT


Gurobi 6.5.2 (linux64) logging started Thu 10 May 2018 04:50:06 PM PDT


Gurobi 6.5.2 (linux64) logging started Thu 10 May 2018 04:53:06 PM PDT


Gurobi 6.5.2 (linux64) logging started Thu 10 May 2018 04:59:39 PM PDT


Gurobi 6.5.2 (linux64) logging started Thu 10 May 2018 07:07:37 PM PDT


Gurobi 6.5.2 (linux64) logging started Thu 10 May 2018 08:10:26 PM PDT


Gurobi 6.5.2 (linux64) logging started Thu 10 May 2018 09:01:48 PM PDT


Gurobi 6.5.2 (linux64) logging started Thu 10 May 2018 11:26:55 PM PDT


Gurobi 6.5.2 (linux64) logging started Fri 11 May 2018 08:51:07 AM PDT


Gurobi 6.5.2 (linux64) logging started Fri 11 May 2018 12:31:36 PM PDT


Gurobi 6.5.2 (linux64) logging started Fri 11 May 2018 01:34:34 PM PDT


Gurobi 6.5.2 (linux64) logging started Fri 11 May 2018 02:24:58 PM PDT


Gurobi 6.5.2 (linux64) logging started Fri 11 May 2018 06:19:22 PM PDT


Gurobi 6.5.2 (linux64) logging started Sat 12 May 2018 09:22:28 AM PDT


Gurobi 6.5.2 (linux64) logging started Sat 12 May 2018 11:30:57 AM PDT


Gurobi 6.5.2 (linux64) logging started Sat 12 May 2018 11:50:20 AM PDT


Gurobi 6.5.2 (linux64) logging started Sat 12 May 2018 12:01:18 PM PDT


Gurobi 6.5.2 (linux64) logging started Sat 12 May 2018 12:03:35 PM PDT


Gurobi 6.5.2 (linux64) logging started Sat 12 May 2018 12:13:04 PM PDT


Gurobi 6.5.2 (linux64) logging started Sat 12 May 2018 12:18:05 PM PDT


Gurobi 6.5.2 (linux64) logging started Sat 12 May 2018 12:33:57 PM PDT


Gurobi 6.5.2 (linux64) logging started Sat 12 May 2018 12:56:31 PM PDT


Gurobi 6.5.2 (linux64) logging started Sat 12 May 2018 03:06:42 PM PDT


Gurobi 6.5.2 (linux64) logging started Sat 12 May 2018 03:20:32 PM PDT


Gurobi 6.5.2 (linux64) logging started Sat 12 May 2018 03:32:30 PM PDT


Gurobi 6.5.2 (linux64) logging started Sat 12 May 2018 03:51:28 PM PDT


Gurobi 6.5.2 (linux64) logging started Sat 12 May 2018 04:08:31 PM PDT


Gurobi 6.5.2 (linux64) logging started Sat 12 May 2018 04:29:30 PM PDT


Gurobi 6.5.2 (linux64) logging started Sun 13 May 2018 12:32:21 PM PDT


Gurobi 6.5.2 (linux64) logging started Mon 14 May 2018 02:00:58 PM PDT


Gurobi 6.5.2 (linux64) logging started Mon 14 May 2018 02:59:11 PM PDT


Gurobi 6.5.2 (linux64) logging started Sat Jun 30 19:09:47 2018


Gurobi 6.5.2 (linux64) logging started Sat Jun 30 19:13:58 2018


Gurobi 6.5.2 (linux64) logging started Sat Jun 30 19:15:08 2018


Gurobi 6.5.2 (linux64) logging started Sat Jun 30 19:15:58 2018


Gurobi 6.5.2 (linux64) logging started Sat Jun 30 19:16:04 2018


Gurobi 6.5.2 (linux64) logging started Sat Jun 30 19:16:22 2018


Gurobi 6.5.2 (linux64) logging started Sat Jun 30 19:16:27 2018


Gurobi 6.5.2 (linux64) logging started Sat Jun 30 19:17:34 2018


Gurobi 6.5.2 (linux64) logging started Sat Jun 30 19:18:24 2018


Gurobi 6.5.2 (linux64) logging started Sat Jun 30 19:18:40 2018


Gurobi 6.5.2 (linux64) logging started Sat Jun 30 19:19:33 2018


Gurobi 6.5.2 (linux64) logging started Sat Jun 30 19:20:19 2018


Gurobi 6.5.2 (linux64) logging started Sat Jun 30 19:21:07 2018


Gurobi 6.5.2 (linux64) logging started Sat Jun 30 19:21:19 2018


Gurobi 6.5.2 (linux64) logging started Sat Jun 30 19:23:49 2018


Gurobi 6.5.2 (linux64) logging started Sat Jun 30 19:25:44 2018


Gurobi 6.5.2 (linux64) logging started Sat Jun 30 19:29:34 2018


Gurobi 6.5.2 (linux64) logging started Sat Jun 30 19:30:11 2018


Gurobi 6.5.2 (linux64) logging started Sat Jun 30 19:31:02 2018


Gurobi 6.5.2 (linux64) logging started Sat Jun 30 19:31:50 2018


Gurobi 6.5.2 (linux64) logging started Sat Jun 30 19:32:36 2018


Gurobi 6.5.2 (linux64) logging started Sat Jun 30 19:33:38 2018


Gurobi 6.5.2 (linux64) logging started Sat Jun 30 19:40:38 2018


Gurobi 6.5.2 (linux64) logging started Sat Jun 30 19:42:06 2018


Gurobi 6.5.2 (linux64) logging started Sat Jun 30 19:45:08 2018


Gurobi 6.5.2 (linux64) logging started Sat Jun 30 19:45:18 2018


Gurobi 6.5.2 (linux64) logging started Sat Jun 30 19:49:12 2018


Gurobi 6.5.2 (linux64) logging started Sat Jun 30 19:50:28 2018


Gurobi 6.5.2 (linux64) logging started Sat Jun 30 19:55:59 2018


Gurobi 6.5.2 (linux64) logging started Sat Jun 30 19:56:46 2018


Gurobi 6.5.2 (linux64) logging started Sat Jun 30 19:58:29 2018


Gurobi 6.5.2 (linux64) logging started Sat Jun 30 20:01:19 2018


Gurobi 6.5.2 (linux64) logging started Sat Jun 30 20:01:58 2018


Gurobi 6.5.2 (linux64) logging started Sat Jun 30 20:02:14 2018


Gurobi 6.5.2 (linux64) logging started Sat Jun 30 20:02:43 2018

